DIMENSION :17
NODE_COORD_SECTION
1 -62.370613835249934 48.87689003796646
2 78.95238298172018 43.67940359578054
3 11.876955231258805 -91.1501448567441
4 -88.31185707014903 -56.92061258821961
5 12.76814333837963 -73.14104333041189
6 9.477149488469493 -18.000839622856304
7 47.92850031944366 58.296216886893916
8 -93.89665302258095 -61.31992666079673
9 72.52228894999507 -7.455067385518845
10 -25.154701479923006 81.61846676116141
11 67.78274582261008 23.712402320710765
12 -81.32848026649171 27.67834408091501
13 98.72732125623565 -50.842524625429355
14 -66.32100334785345 -6.82474728368841
15 40.19962306996268 58.83175827734715
16 90.87368195269178 -73.56155399778109
17 42.60657004233502 12.242292993002948
EOF
